% File represents an instance of a Composite Structure problem to be solved by a CP framework
% Created on 2025-03-26 10:42:05.529
T = 56;
n = 36;
m = 60;
edges = [(1, 2),
(7, 8),
(13, 14),
(19, 20),
(26, 25),
(32, 31),
(3, 2),
(8, 9),
(14, 15),
(21, 20),
(27, 26),
(33, 32),
(4, 3),
(10, 9),
(16, 15),
(22, 21),
(27, 28),
(33, 34),
(4, 5),
(10, 11),
(17, 16),
(22, 23),
(29, 28),
(35, 34),
(6, 5),
(12, 11),
(18, 17),
(24, 23),
(29, 30),
(35, 36),
(7, 1),
(7, 13),
(13, 19),
(19, 25),
(25, 31),
(8, 2),
(8, 14),
(14, 20),
(26, 20),
(26, 32),
(3, 9),
(9, 15),
(21, 15),
(27, 21),
(27, 33),
(4, 10),
(10, 16),
(22, 16),
(28, 22),
(28, 34),
(5, 11),
(17, 11),
(17, 23),
(29, 23),
(29, 35),
(12, 6),
(18, 12),
(18, 24),
(24, 30),
(30, 36)];
counts = [|12, 20, 12, 8,
|10, 20, 10, 8,
|10, 20, 10, 10,
|12, 20, 12, 10,
|10, 18, 10, 10,
|10, 20, 10, 10,
|12, 22, 12, 10,
|10, 20, 10, 10,
|10, 18, 10, 8,
|10, 20, 10, 10,
|10, 16, 10, 10,
|10, 22, 10, 10,
|12, 20, 12, 10,
|10, 18, 10, 10,
|10, 18, 10, 6,
|10, 20, 10, 8,
|10, 22, 10, 10,
|10, 24, 10, 12,
|10, 18, 10, 10,
|10, 16, 10, 10,
|10, 18, 10, 10,
|10, 20, 10, 10,
|10, 20, 10, 8,
|10, 20, 10, 10,
|8, 18, 8, 10,
|10, 20, 10, 10,
|10, 22, 10, 12,
|10, 20, 10, 12,
|10, 20, 10, 14,
|10, 18, 10, 10,
|8, 14, 8, 8,
|8, 20, 8, 8,
|10, 20, 10, 10,
|10, 18, 10, 10,
|10, 20, 10, 10,
|10, 16, 10, 10|];
